NAME nominalQP
ROWS
 N  OBJ
 L  quad_0  
 L  quad_1  
COLUMNS
    C0        OBJ       0.122
    C0        quad_0    0.204
    C0        quad_1    1.164
    C1        OBJ       -1.353
    C1        quad_0    -0.646
    C1        quad_1    -2.02
    C2        OBJ       0.213
    C2        quad_0    1.236
    C2        quad_1    -0.349
    C3        OBJ       -1.101
    C3        quad_0    -0.926
    C4        OBJ       0.855
    C5        OBJ       -0.023
    C5        quad_0    -1.801
    C5        quad_1    -0.215
    C6        OBJ       0.469
    C6        quad_0    0.52
    C7        OBJ       0.845
    C7        quad_0    0.107
    C8        OBJ       -1.007
    C8        quad_0    0.623
    C8        quad_1    0.772
    C9        OBJ       0.429
    C9        quad_0    -0.893
    C9        quad_1    -0.394
RHS
    RHS1      OBJ       -0.305
    RHS1      quad_0    3.677
    RHS1      quad_1    4.163
BOUNDS
QUADOBJ
    C0        C0        2
    C1        C1        2
    C2        C2        2
    C3        C3        2
    C4        C4        2
    C5        C5        2
    C6        C6        2
    C7        C7        2
    C8        C8        2
    C9        C9        2
QCMATRIX   quad_0  
    C4        C4        5.6869489999999994e+00
QCMATRIX   quad_1  
    C3        C3        7.0480000000000009e-01
    C3        C4        -0.778456
    C4        C3        -0.778456
    C3        C6        2.0414000000000002e-01
    C6        C3        2.0414000000000002e-01
    C3        C7        9.5679600000000009e-01
    C7        C3        9.5679600000000009e-01
    C4        C4        2.7928040000000003e+00
    C4        C6        -4.1032600000000008e-01
    C6        C4        -4.1032600000000008e-01
    C4        C7        -7.4284000000000006e-01
    C7        C4        -7.4284000000000006e-01
    C6        C6        7.6805000000000012e-02
    C6        C7        2.4710600000000002e-01
    C7        C6        2.4710600000000002e-01
    C7        C7        1.3498810000000001e+00
ENDATA
